Comps = {frontend0, frontend1, backend0, backend1, database0, database1};
mustComps = {frontend0, frontend1};
Flavs = {tiny, medium, large};
Nodes = {n1, n2, n3, n4};
CRes = {CPU, RAM, storage, bwIn, bwOut};
NRes = {ssl, fwall, encr, avail, latency};
Flav = [{medium, large}, {medium, large}, {tiny, medium, large}, {tiny, medium, large}, {large}, {large}];
Uses = array2d(CompFlavs, CompFlavs, [
	0,0,0,0,1,0,0,0,0,0,0,0,
	0,0,0,0,1,0,0,0,0,0,0,0,
	0,0,0,0,1,0,0,0,0,0,0,0,
	0,0,0,0,1,0,0,0,0,0,0,0,
	0,0,0,0,0,0,0,0,0,0,0,0,
	0,0,0,0,0,0,0,0,0,1,0,0,
	0,0,0,0,0,0,0,0,0,1,0,0,
	0,0,0,0,0,0,0,0,0,0,0,0,
	0,0,0,0,0,0,1,0,0,0,0,0,
	0,0,0,0,0,0,1,0,0,0,0,0,
	0,0,0,0,0,0,0,0,0,0,0,0,
	0,0,0,0,0,0,0,0,0,0,0,0,
]);
mayUse = array2d(Comps, CompFlavs, [
	0,0,0,0,0,0,0,0,0,0,0,0,
	0,0,0,0,0,0,0,0,0,0,0,0,
	1,1,1,1,0,0,0,0,1,1,0,0,
	0,0,0,0,0,1,1,0,0,0,0,0,
	0,0,0,0,0,0,0,0,0,0,0,0,
	0,0,0,0,0,0,0,0,0,0,0,0,
]);
MIN_RBOUNDS = 0;
MAX_RBOUNDS = 1000000;

worstBounds = [0, 0, 0, 0, 0, 0, 0, 0, 0, MAX_RBOUNDS];
bestBounds = [MAX_RBOUNDS - i | i in worstBounds];

comReq = array2d(CompFlavs, Res, [
  8, 370, 297, 243, 919, 0, 1, 1, 97, MAX_RBOUNDS,
  2, 286, 431, 800, 535, 1, 1, 1, 95, MAX_RBOUNDS,
  2, 463, 364, 879, 942, 1, 1, 1, 95, MAX_RBOUNDS,
  4, 299, 356, 600, 632, 1, 1, 0, 96, MAX_RBOUNDS,
  2, 279, 369, 237, 387, 0, 1, 1, 95, MAX_RBOUNDS,
  4, 414, 400, 691, 279, 1, 1, 0, 97, MAX_RBOUNDS,
  8, 261, 468, 748, 908, 0, 1, 1, 97, MAX_RBOUNDS,
  4, 307, 320, 997, 704, 0, 1, 1, 95, MAX_RBOUNDS,
  4, 347, 281, 616, 433, 0, 1, 0, 96, MAX_RBOUNDS,
  2, 380, 213, 760, 499, 0, 1, 1, 97, MAX_RBOUNDS,
  2, 377, 492, 348, 418, 1, 1, 0, 96, MAX_RBOUNDS,
  4, 262, 248, 799, 395, 1, 1, 0, 95, MAX_RBOUNDS,
]);

nodeCap = array2d(Nodes0, Res, [bestBounds[r] | r in Res] ++ [
  32, 83714, 533363, 20464, 17091, 1, 0, 1, 99, 0,
  32, 79092, 609297, 11977, 13791, 1, 1, 1, 98, 0,
  32, 113414, 655227, 11747, 18882, 1, 1, 1, 99, 0,
  16, 26555, 258577, 20040, 18327, 1, 1, 1, 99, 0,
]);

cost = array2d(Nodes0, Res, [
  0, 0, 0, 0, 0, 0, 0, 0, 0, 0, % no node
  17, 9, 16, 0, 0, 0, 0, 0, 0, 0,
  10, 5, 20, 0, 0, 0, 0, 0, 0, 0,
  18, 7, 21, 0, 0, 0, 0, 0, 0, 0,
  16, 5, 19, 0, 0, 0, 0, 0, 0, 0,
]);

carb = array2d(Nodes0, Res, [
  0, 0, 0, 0, 0, 0, 0, 0, 0, 0, % no node
  34, 9, 31, 0, 0, 0, 0, 0, 0, 0,
  10, 14, 1, 0, 0, 0, 0, 0, 0, 0,
  19, 34, 6, 0, 0, 0, 0, 0, 0, 0,
  30, 44, 19, 0, 0, 0, 0, 0, 0, 0,
]);

costBudget = 44564;
carbBudget = 50866;

depReq = array4d(Comps, Flavs, Comps, Res, [
  if c1 = frontend0 /\ c2 = backend0 /\ r = N(avail) then
    96
  elseif c1 = frontend0 /\ c2 = backend1 /\ r = N(avail) then
    97
  elseif c1 = frontend1 /\ c2 = backend1 /\ r = N(avail) then
    97
  elseif c1 = frontend1 /\ c2 = backend0 /\ r = N(avail) then
    96
  else
    worstBounds[r]
  endif | c1 in Comps, i in Flavs, c2 in Comps, r in Res]);

linkCap = array3d(Nodes0, Nodes0, Res, [
  if ni = 0 \/ nj = 0 then
    bestBounds[r]
  elseif ni = nj /\ r = N(avail) then
    nodeCap[ni,r]
  elseif {ni, nj} = {n1, n2} /\ r = N(avail) then
    98
  elseif {ni, nj} = {n2, n4} /\ r = N(avail) then
    98
  elseif {ni, nj} = {n1, n4} /\ r = N(avail) then
    99
  elseif {ni, nj} = {n2, n3} /\ r = N(avail) then
    99
  elseif {ni, nj} = {n1, n3} /\ r = N(avail) then
    98
  elseif {ni, nj} = {n3, n4} /\ r = N(avail) then
    99
  else
    worstBounds[r]
  endif | ni in Nodes0, nj in Nodes0, r in Res]);

imp = array2d(Comps, Flavs, [
  4, 5, 9,
  2, 3, 9,
  2, 4, 8,
  1, 3, 4,
  1, 4, 9,
  3, 4, 8,
]);

